
Gurobi 12.0.3 (win64) logging started Sun Nov  9 10:03:11 2025

Set parameter LogFile to value "Results\100_percent\stage_2\budget_10000\gurobi.log"
Gurobi Optimizer version 12.0.3 build v12.0.3rc0 (win64 - Windows 11+.0 (26200.2))

CPU model: Intel(R) Core(TM) Ultra 7 265K, instruction set [SSE2|AVX|AVX2]
Thread count: 20 physical cores, 20 logical processors, using up to 20 threads

Non-default parameters:
TimeLimit  86400

Optimize a model with 16157459 rows, 18577959 columns and 84716811 nonzeros
Model fingerprint: 0x0bb8a5bb
Variable types: 0 continuous, 18577959 integer (2449703 binary)
Coefficient statistics:
  Matrix range     [1e+00, 1e+12]
  Objective range  [1e+00, 1e+00]
  Bounds range     [1e+00, 1e+00]
  RHS range        [1e+00, 1e+04]
Warning: Model contains large matrix coefficients
         Consider reformulating model or setting NumericFocus parameter
         to avoid numerical issues.
Found heuristic solution: objective 5.0000000
Presolve removed 15945749 rows and 4016 columns (presolve time = 5s)...
Presolve removed 15946899 rows and 378038 columns (presolve time = 11s)...
Presolve removed 15947123 rows and 427544 columns (presolve time = 16s)...
Presolve removed 15947184 rows and 428118 columns (presolve time = 22s)...
Presolve removed 15947184 rows and 428118 columns
Presolve time: 22.18s
Presolved: 210275 rows, 18149841 columns, 67413506 nonzeros
Variable types: 0 continuous, 18149841 integer (2432581 binary)
Performing another presolve...
Presolve removed 0 rows and 0 columns (presolve time = 5s)...
Presolve removed 0 rows and 25 columns (presolve time = 11s)...
Presolve removed 0 rows and 25 columns (presolve time = 16s)...
Presolve removed 715 rows and 307 columns (presolve time = 20s)...
Presolve removed 715 rows and 1022 columns (presolve time = 25s)...
Presolve removed 740 rows and 1047 columns (presolve time = 32s)...
Presolve removed 740 rows and 1047 columns (presolve time = 35s)...
Presolve removed 740 rows and 1047 columns (presolve time = 40s)...
Presolve removed 740 rows and 1047 columns (presolve time = 45s)...
Presolve removed 740 rows and 1047 columns (presolve time = 50s)...
Presolve removed 1185 rows and 1047 columns (presolve time = 55s)...
Presolve removed 1189 rows and 55239 columns (presolve time = 61s)...
Presolve removed 1189 rows and 55239 columns (presolve time = 66s)...
Presolve removed 1189 rows and 55239 columns (presolve time = 70s)...
Presolve removed 1189 rows and 55239 columns (presolve time = 76s)...
Presolve removed 1189 rows and 55239 columns (presolve time = 80s)...
Presolve removed 1189 rows and 55239 columns (presolve time = 86s)...
Presolve removed 1189 rows and 55239 columns (presolve time = 91s)...
Presolve removed 1189 rows and 55239 columns (presolve time = 95s)...
Presolve removed 1189 rows and 55239 columns (presolve time = 100s)...
Presolve removed 1189 rows and 55239 columns (presolve time = 106s)...
Presolve removed 1189 rows and 55239 columns (presolve time = 111s)...
Presolve removed 1189 rows and 55239 columns (presolve time = 115s)...
Presolve removed 1189 rows and 55239 columns (presolve time = 120s)...
Presolve removed 1189 rows and 55239 columns (presolve time = 125s)...
Presolve removed 1189 rows and 55239 columns (presolve time = 131s)...
Presolve removed 1189 rows and 55239 columns (presolve time = 135s)...
Presolve removed 1189 rows and 55239 columns (presolve time = 142s)...
Presolve removed 1189 rows and 55239 columns (presolve time = 149s)...
Presolve removed 1189 rows and 55239 columns (presolve time = 157s)...
Presolve removed 1189 rows and 55239 columns (presolve time = 164s)...
Presolve removed 1189 rows and 55239 columns (presolve time = 179s)...
Presolve removed 1189 rows and 55239 columns
Presolve time: 179.81s

Explored 1 nodes (0 simplex iterations) in 227.22 seconds (259.90 work units)
Thread count was 20 (of 20 available processors)

Solution count 1: 5 

Solve interrupted
Best objective 5.000000000000e+00, best bound 2.431586000000e+06, gap 48631620.0000%
